5 5
1 94 4 63 2 26 3 95 0 35
4 67 2 56 1 40 3 29 0 6
3 52 2 1 4 52 1 24 0 34
0 7 3 75 2 11 1 36 4 20
0 63 4 80 3 63 1 69 2 88
-1
0 1 2 3 5
0 2 3 5
0 1 3 5
0 2 5
0 2 3 4 5
-2
102 204 233 500
139 172 284
71 142 252
90 199
166 258 314 363

372 7
20 15 9 14 4
0 7 23 13 18
6 11 17 2 24
10 16 22 8 3
5 21 1 12 19
